Pb16 
1.0
6.9699088828292819e+00 -4.1062808946786166e-19 1.8386812585331774e-19 
-2.9430235509419377e-02 6.0081667295625989e+00 6.8930879217484329e-18 
-2.4019864335776943e-02 -6.1218783369748279e-02 1.1731692944440407e+01 
Pb Sn
13 3
Cartesian
   0.2992392632    0.6152974620    1.4673914177
   0.2758616113    4.5880888100    4.3689066855
   2.0412268858    1.5898789556    4.3960428058
   2.0187811892    3.6308280924    1.4759312058
   0.3038218981    0.5826467536    7.3393387850
   2.0017392312    1.5519879048   10.2200104676
   2.0143717972    3.5744814092    7.3363607713
   3.7581144881    0.6239153317    1.4607908747
   3.7209794869    4.5951365074    4.3981053337
   5.5167270088    1.5603556918    4.3783862604
   5.5005337465    3.5930985793    1.4676796037
   3.7613048029    0.5783165584    7.3315417869
   3.7493899666    4.5876008072   10.2162720691
   5.5010371588    3.5373960620    7.3326017902
   0.2528777977    4.5761505500   10.2645017822
   5.4719216847    1.5529729905   10.2487051581
